
Gurobi 10.0.2 (win64) logging started Tue Jul  4 23:06:30 2023

Set parameter LogFile to value "Outputs/Logfiles/model_moo(Jul 04,2306).log"
Gurobi Optimizer version 10.0.2 build v10.0.2rc0 (win64)

CPU model: Intel(R) Core(TM) i5-8265U CPU @ 1.60GHz, instruction set [SSE2|AVX|AVX2]
Thread count: 4 physical cores, 8 logical processors, using up to 8 threads

Optimize a model with 12101 rows, 8060 columns and 20060 nonzeros
Model fingerprint: 0x49e6f633
Variable types: 6000 continuous, 2060 integer (2060 binary)
Coefficient statistics:
  Matrix range     [1e+00, 2e+05]
  Objective range  [1e-04, 8e+04]
  Bounds range     [1e+00, 1e+00]
  RHS range        [2e+00, 2e+02]
Warning: PoolSearchMode != 0 is not supported for multi-objective optimization.
         Reset PoolSearchMode to zero.

---------------------------------------------------------------------------
Multi-objectives: starting optimization with 2 objectives ... 
---------------------------------------------------------------------------

Multi-objectives: applying initial presolve ...
---------------------------------------------------------------------------

Presolve removed 10000 rows and 4000 columns
Presolve time: 0.11s
Presolved: 2101 rows and 4060 columns
---------------------------------------------------------------------------

Multi-objectives: optimize objective 1 (objective_re_1) ...
---------------------------------------------------------------------------

Found heuristic solution: objective -190.1375610
Presolve removed 2100 rows and 4008 columns
Presolve time: 0.48s
Presolved: 1 rows, 52 columns, 52 nonzeros
Found heuristic solution: objective -6563.066430
Variable types: 0 continuous, 52 integer (52 binary)
Found heuristic solution: objective -6854.156320

Root relaxation: cutoff, 0 iterations, 0.00 seconds (0.00 work units)

Explored 1 nodes (0 simplex iterations) in 0.84 seconds (0.01 work units)
Thread count was 8 (of 8 available processors)

Solution count 2: -6854.16 -6563.07 
No other solutions better than -6854.16

Optimal solution found (tolerance 1.00e-04)
Best objective -6.854156319773e+03, best bound -6.854156319773e+03, gap 0.0000%
---------------------------------------------------------------------------

Multi-objectives: optimize objective 2 (objective_cost_2) ...
---------------------------------------------------------------------------


Loaded user MIP start with objective 220000

Presolve removed 2001 rows and 2174 columns
Presolve time: 0.04s
Presolved: 101 rows, 1886 columns, 3772 nonzeros
Variable types: 0 continuous, 1886 integer (1886 binary)

Root relaxation: cutoff, 103 iterations, 0.01 seconds (0.00 work units)

    Nodes    |    Current Node    |     Objective Bounds      |     Work
 Expl Unexpl |  Obj  Depth IntInf | Incumbent    BestBd   Gap | It/Node Time

     0     0     cutoff    0      220000.000 220000.000  0.00%     -    1s

Explored 1 nodes (103 simplex iterations) in 1.13 seconds (0.02 work units)
Thread count was 8 (of 8 available processors)

Solution count 1: 220000 

Optimal solution found (tolerance 1.00e-04)
Best objective 2.200000000000e+05, best bound 2.200000000000e+05, gap 0.0000%

---------------------------------------------------------------------------
Multi-objectives: solved in 1.21 seconds (0.02 work units), solution count 2


    Variable            X 
-------------------------
cover[o74,s14]            1 
cover[o74,s16]            1 
cover[o74,s17]            1 
cover[o98,s13]            1 
cover[o98,s15]            1 
cover[o98,s16]            1 
cover[o53,s8]            1 
cover[o53,s10]            1 
cover[o53,s11]            1 
cover[o178,s1]            1 
cover[o178,s2]            1 
cover[o178,s3]            1 
cover[o203,s18]            1 
cover[o203,s19]            1 
cover[o203,s20]            1 
cover[o127,s13]            1 
cover[o127,s14]            1 
cover[o127,s16]            1 
cover[o172,s2]            1 
cover[o172,s3]            1 
cover[o172,s4]            1 
cover[o51,s12]            1 
cover[o51,s13]            1 
cover[o51,s15]            1 
cover[o7,s18]            1 
cover[o7,s19]            1 
cover[o7,s20]            1 
cover[o30,s1]            1 
cover[o30,s2]            1 
cover[o30,s5]            1 
cover[o221,s1]            1 
cover[o221,s2]            1 
cover[o221,s5]            1 
cover[o64,s8]            1 
cover[o64,s10]            1 
cover[o64,s11]            1 
cover[o25,s1]            1 
cover[o25,s2]            1 
cover[o25,s5]            1 
cover[o94,s18]            1 
cover[o94,s19]            1 
cover[o94,s20]            1 
cover[o119,s9]            1 
cover[o119,s12]            1 
cover[o119,s13]            1 
cover[o148,s3]            1 
cover[o148,s4]            1 
cover[o148,s6]            1 
cover[o208,s3]            1 
cover[o208,s4]            1 
cover[o208,s5]            1 
cover[o86,s18]            1 
cover[o86,s19]            1 
cover[o86,s20]            1 
cover[o93,s18]            1 
cover[o93,s19]            1 
cover[o93,s20]            1 
cover[o108,s9]            1 
cover[o108,s12]            1 
cover[o108,s13]            1 
cover[o131,s9]            1 
cover[o131,s10]            1 
cover[o131,s11]            1 
cover[o6,s18]            1 
cover[o6,s19]            1 
cover[o6,s20]            1 
cover[o10,s15]            1 
cover[o10,s18]            1 
cover[o10,s20]            1 
cover[o41,s2]            1 
cover[o41,s3]            1 
cover[o41,s4]            1 
cover[o144,s3]            1 
cover[o144,s4]            1 
cover[o144,s6]            1 
cover[o169,s1]            1 
cover[o169,s2]            1 
cover[o169,s3]            1 
cover[o185,s1]            1 
cover[o185,s2]            1 
cover[o185,s3]            1 
cover[o87,s18]            1 
cover[o87,s19]            1 
cover[o87,s20]            1 
cover[o168,s2]            1 
cover[o168,s3]            1 
cover[o168,s4]            1 
cover[o24,s1]            1 
cover[o24,s2]            1 
cover[o24,s3]            1 
cover[o190,s8]            1 
cover[o190,s10]            1 
cover[o190,s11]            1 
cover[o97,s13]            1 
cover[o97,s15]            1 
cover[o97,s16]            1 
cover[o162,s2]            1 
cover[o162,s3]            1 
cover[o162,s4]            1 
cover[o106,s13]            1 
cover[o106,s15]            1 
cover[o106,s16]            1 
cover[o157,s2]            1 
cover[o157,s3]            1 
cover[o157,s4]            1 
cover[o175,s1]            1 
cover[o175,s2]            1 
cover[o175,s3]            1 
cover[o136,s9]            1 
cover[o136,s10]            1 
cover[o136,s11]            1 
cover[o145,s3]            1 
cover[o145,s6]            1 
cover[o145,s7]            1 
cover[o3,s8]            1 
cover[o3,s10]            1 
cover[o3,s11]            1 
cover[o28,s1]            1 
cover[o28,s2]            1 
cover[o28,s5]            1 
cover[o45,s10]            1 
cover[o45,s11]            1 
cover[o45,s14]            1 
cover[o27,s1]            1 
cover[o27,s2]            1 
cover[o27,s5]            1 
cover[o219,s1]            1 
cover[o219,s2]            1 
cover[o219,s5]            1 
cover[o9,s13]            1 
cover[o9,s15]            1 
cover[o9,s16]            1 
cover[o212,s3]            1 
cover[o212,s4]            1 
cover[o212,s5]            1 
cover[o139,s6]            1 
cover[o139,s7]            1 
cover[o139,s9]            1 
cover[o214,s3]            1 
cover[o214,s4]            1 
cover[o214,s5]            1 
cover[o113,s9]            1 
cover[o113,s12]            1 
cover[o113,s13]            1 
cover[o160,s2]            1 
cover[o160,s3]            1 
cover[o160,s4]            1 
cover[o191,s8]            1 
cover[o191,s10]            1 
cover[o191,s11]            1 
cover[o104,s12]            1 
cover[o104,s13]            1 
cover[o104,s15]            1 
cover[o184,s1]            1 
cover[o184,s2]            1 
cover[o184,s3]            1 
cover[o37,s1]            1 
cover[o37,s2]            1 
cover[o37,s3]            1 
cover[o165,s2]            1 
cover[o165,s3]            1 
cover[o165,s4]            1 
cover[o83,s18]            1 
cover[o83,s19]            1 
cover[o83,s20]            1 
cover[o114,s9]            1 
cover[o114,s12]            1 
cover[o114,s13]            1 
cover[o155,s2]            1 
cover[o155,s3]            1 
cover[o155,s4]            1 
cover[o91,s18]            1 
cover[o91,s19]            1 
cover[o91,s20]            1 
cover[o138,s6]            1 
cover[o138,s7]            1 
cover[o138,s9]            1 
cover[o183,s1]            1 
cover[o183,s2]            1 
cover[o183,s5]            1 
cover[o11,s12]            1 
cover[o11,s13]            1 
cover[o11,s15]            1 
cover[o181,s1]            1 
cover[o181,s2]            1 
cover[o181,s3]            1 
cover[o159,s2]            1 
cover[o159,s3]            1 
cover[o159,s4]            1 
cover[o48,s12]            1 
cover[o48,s13]            1 
cover[o48,s14]            1 
cover[o129,s13]            1 
cover[o129,s14]            1 
cover[o129,s16]            1 
cover[o158,s2]            1 
cover[o158,s3]            1 
cover[o158,s4]            1 
cover[o117,s9]            1 
cover[o117,s12]            1 
cover[o117,s13]            1 
cover[o153,s3]            1 
cover[o153,s4]            1 
cover[o153,s6]            1 
cover[o101,s12]            1 
cover[o101,s13]            1 
cover[o101,s14]            1 
cover[o44,s16]            1 
cover[o44,s17]            1 
cover[o44,s19]            1 
cover[o109,s13]            1 
cover[o109,s15]            1 
cover[o109,s18]            1 
cover[o59,s8]            1 
cover[o59,s10]            1 
cover[o59,s11]            1 
cover[o121,s9]            1 
cover[o121,s12]            1 
cover[o121,s13]            1 
cover[o13,s9]            1 
cover[o13,s10]            1 
cover[o13,s11]            1 
cover[o128,s13]            1 
cover[o128,s14]            1 
cover[o128,s16]            1 
cover[o90,s18]            1 
cover[o90,s19]            1 
cover[o90,s20]            1 
cover[o79,s16]            1 
cover[o79,s17]            1 
cover[o79,s19]            1 
cover[o161,s2]            1 
cover[o161,s3]            1 
cover[o161,s4]            1 
cover[o163,s2]            1 
cover[o163,s3]            1 
cover[o163,s4]            1 
cover[o130,s9]            1 
cover[o130,s10]            1 
cover[o130,s12]            1 
cover[o107,s12]            1 
cover[o107,s13]            1 
cover[o107,s14]            1 
cover[o42,s1]            1 
cover[o42,s2]            1 
cover[o42,s3]            1 
cover[o31,s1]            1 
cover[o31,s2]            1 
cover[o31,s5]            1 
cover[o19,s3]            1 
cover[o19,s6]            1 
cover[o19,s7]            1 
cover[o22,s1]            1 
cover[o22,s2]            1 
cover[o187,s1]            1 
cover[o187,s2]            1 
cover[o187,s5]            1 
cover[o84,s16]            1 
cover[o84,s17]            1 
cover[o84,s19]            1 
cover[o132,s9]            1 
cover[o132,s10]            1 
cover[o132,s11]            1 
cover[o198,s1]            1 
cover[o198,s2]            1 
cover[o198,s3]            1 
cover[o49,s13]            1 
cover[o49,s15]            1 
cover[o49,s16]            1 
cover[o116,s9]            1 
cover[o116,s12]            1 
cover[o116,s13]            1 
cover[o124,s9]            1 
cover[o124,s12]            1 
cover[o124,s13]            1 
cover[o134,s9]            1 
cover[o134,s10]            1 
cover[o134,s11]            1 
cover[o82,s18]            1 
cover[o82,s19]            1 
cover[o82,s20]            1 
cover[o220,s1]            1 
cover[o220,s2]            1 
cover[o220,s5]            1 
cover[o207,s3]            1 
cover[o207,s4]            1 
cover[o207,s5]            1 
cover[o43,s2]            1 
cover[o43,s3]            1 
cover[o43,s4]            1 
cover[o192,s1]            1 
cover[o192,s2]            1 
cover[o192,s5]            1 
cover[o174,s2]            1 
cover[o174,s3]            1 
cover[o174,s4]            1 
cover[o78,s14]            1 
cover[o78,s16]            1 
cover[o78,s17]            1 
select[s2,i]            1 
select[s14,c]            1 
select[s3,c]            1 
select[s6,i]            1 
select[s7,i]            1 
deploy[o53,s3,c]          110 
deploy[o53,s14,c]          110 
deploy[o178,s2,i]          157 
deploy[o178,s6,i]          157 
deploy[o178,s7,i]          157 
deploy[o203,s2,i]            7 
deploy[o203,s6,i]            7 
deploy[o203,s7,i]            7 
deploy[o127,s3,c]            5 
deploy[o127,s14,c]            5 
deploy[o172,s3,c]            5 
deploy[o172,s14,c]            5 
deploy[o51,s3,c]           31 
deploy[o51,s14,c]           31 
deploy[o64,s2,i]           37 
deploy[o64,s6,i]           37 
deploy[o64,s7,i]           37 
deploy[o25,s3,c]           31 
deploy[o25,s14,c]           31 
deploy[o119,s3,c]          110 
deploy[o119,s14,c]          110 
deploy[o148,s3,c]            5 
deploy[o148,s14,c]            5 
deploy[o86,s3,c]          110 
deploy[o86,s14,c]          110 
deploy[o93,s3,c]            5 
deploy[o93,s14,c]            5 
deploy[o108,s3,c]           31 
deploy[o108,s14,c]           31 
deploy[o131,s2,i]            7 
deploy[o131,s6,i]            7 
deploy[o131,s7,i]            7 
deploy[o6,s3,c]          110 
deploy[o6,s14,c]          110 
deploy[o10,s2,i]          157 
deploy[o10,s6,i]          157 
deploy[o10,s7,i]          157 
deploy[o144,s3,c]          110 
deploy[o144,s14,c]          110 
deploy[o169,s3,c]           31 
deploy[o169,s14,c]           31 
deploy[o185,s2,i]          157 
deploy[o185,s6,i]          157 
deploy[o185,s7,i]          157 
deploy[o87,s2,i]          157 
deploy[o87,s6,i]          157 
deploy[o87,s7,i]          157 
deploy[o168,s3,c]           31 
deploy[o168,s14,c]           31 
deploy[o97,s3,c]            5 
deploy[o97,s14,c]            5 
deploy[o162,s3,c]            5 
deploy[o162,s14,c]            5 
deploy[o106,s3,c]            5 
deploy[o106,s14,c]            5 
deploy[o136,s3,c]          110 
deploy[o136,s14,c]          110 
deploy[o145,s3,c]           31 
deploy[o145,s14,c]           31 
deploy[o3,s2,i]           37 
deploy[o3,s6,i]           37 
deploy[o3,s7,i]           37 
deploy[o219,s2,i]            7 
deploy[o219,s6,i]            7 
deploy[o219,s7,i]            7 
deploy[o9,s2,i]           37 
deploy[o9,s6,i]           37 
deploy[o9,s7,i]           37 
deploy[o212,s2,i]            7 
deploy[o212,s6,i]            7 
deploy[o212,s7,i]            7 
deploy[o139,s3,c]           31 
deploy[o139,s14,c]           31 
deploy[o214,s2,i]           37 
deploy[o214,s6,i]           37 
deploy[o214,s7,i]           37 
deploy[o160,s3,c]           31 
deploy[o160,s14,c]           31 
deploy[o191,s3,c]           31 
deploy[o191,s14,c]           31 
deploy[o184,s3,c]           31 
deploy[o184,s14,c]           31 
deploy[o165,s2,i]            7 
deploy[o165,s6,i]            7 
deploy[o165,s7,i]            7 
deploy[o83,s3,c]           31 
deploy[o83,s14,c]           31 
deploy[o114,s3,c]          110 
deploy[o114,s14,c]          110 
deploy[o91,s3,c]            5 
deploy[o91,s14,c]            5 
deploy[o138,s2,i]          157 
deploy[o138,s6,i]          157 
deploy[o138,s7,i]          157 
deploy[o183,s3,c]            5 
deploy[o183,s14,c]            5 
deploy[o11,s3,c]          110 
deploy[o11,s14,c]          110 
deploy[o181,s3,c]          110 
deploy[o181,s14,c]          110 
deploy[o159,s3,c]           31 
deploy[o159,s14,c]           31 
deploy[o158,s2,i]          157 
deploy[o158,s6,i]          157 
deploy[o158,s7,i]          157 
deploy[o117,s3,c]           31 
deploy[o117,s14,c]           31 
deploy[o153,s3,c]            5 
deploy[o153,s14,c]            5 
deploy[o109,s2,i]            7 
deploy[o109,s6,i]            7 
deploy[o109,s7,i]            7 
deploy[o59,s2,i]            7 
deploy[o59,s6,i]            7 
deploy[o59,s7,i]            7 
deploy[o121,s2,i]          157 
deploy[o121,s6,i]          157 
deploy[o121,s7,i]          157 
deploy[o90,s2,i]           37 
deploy[o90,s6,i]           37 
deploy[o90,s7,i]           37 
deploy[o79,s3,c]          110 
deploy[o79,s14,c]          110 
deploy[o161,s2,i]           37 
deploy[o161,s6,i]           37 
deploy[o161,s7,i]           37 
deploy[o130,s2,i]            7 
deploy[o130,s6,i]            7 
deploy[o130,s7,i]            7 
deploy[o22,s3,c]          110 
deploy[o22,s14,c]          110 
deploy[o84,s3,c]           31 
deploy[o84,s14,c]           31 
deploy[o198,s2,i]            7 
deploy[o198,s6,i]            7 
deploy[o198,s7,i]            7 
deploy[o49,s2,i]          157 
deploy[o49,s6,i]          157 
deploy[o49,s7,i]          157 
deploy[o116,s3,c]           31 
deploy[o116,s14,c]           31 
deploy[o124,s2,i]          157 
deploy[o124,s6,i]          157 
deploy[o124,s7,i]          157 
deploy[o134,s2,i]          157 
deploy[o134,s6,i]          157 
deploy[o134,s7,i]          157 
deploy[o82,s2,i]           37 
deploy[o82,s6,i]           37 
deploy[o82,s7,i]           37 
deploy[o220,s2,i]           37 
deploy[o220,s6,i]           37 
deploy[o220,s7,i]           37 
deploy[o207,s3,c]            5 
deploy[o207,s14,c]            5 
deploy[o43,s3,c]          110 
deploy[o43,s14,c]          110 
deploy[o192,s2,i]            7 
deploy[o192,s6,i]            7 
deploy[o192,s7,i]            7 
deploy[o174,s2,i]          157 
deploy[o174,s6,i]          157 
deploy[o174,s7,i]          157 
deploy[o78,s3,c]           31 
deploy[o78,s14,c]           31 
